(set-option :produce-models true); benchmark generated from python API
(set-info :status unknown)
(declare-fun l_0_0_3 () Real)
(declare-fun l_0_0_1 () Real)
(declare-fun l_0_0_2 () Real)
(declare-fun l_0_0_4 () Real)
(declare-fun l_0_1_3 () Real)
(declare-fun l_0_1_1 () Real)
(declare-fun l_0_1_2 () Real)
(declare-fun l_0_1_5 () Real)
(declare-fun l_0_1_4 () Real)
(declare-fun l_0_2_6 () Real)
(declare-fun l_0_2_5 () Real)
(declare-fun l_0_2_4 () Real)
(declare-fun l_0_2_1 () Real)
(declare-fun l_0_2_2 () Real)
(declare-fun l_0_2_3 () Real)
(declare-fun l_0_3_7 () Real)
(declare-fun l_0_3_6 () Real)
(declare-fun l_0_3_5 () Real)
(declare-fun l_0_3_4 () Real)
(declare-fun l_0_3_1 () Real)
(declare-fun l_0_3_2 () Real)
(declare-fun l_0_3_3 () Real)
(declare-fun l_0_4_6 () Real)
(declare-fun l_0_4_5 () Real)
(declare-fun l_0_4_2 () Real)
(declare-fun l_0_4_1 () Real)
(declare-fun l_0_4_4 () Real)
(declare-fun l_0_4_3 () Real)
(declare-fun l_0_5_2 () Real)
(declare-fun l_0_5_1 () Real)
(declare-fun _a_0_ () Real)
(declare-fun l_0_5_8 () Real)
(declare-fun l_0_5_5 () Real)
(declare-fun _a_1_ () Real)
(declare-fun _a_2_ () Real)
(declare-fun l_0_5_4 () Real)
(declare-fun l_0_5_3 () Real)
(declare-fun l_0_5_7 () Real)
(declare-fun l_0_5_6 () Real)
(declare-fun l_0_6_2 () Real)
(declare-fun l_0_6_1 () Real)
(declare-fun l_0_6_9 () Real)
(declare-fun l_0_6_8 () Real)
(declare-fun l_0_6_5 () Real)
(declare-fun l_0_6_4 () Real)
(declare-fun l_0_6_3 () Real)
(declare-fun l_0_6_7 () Real)
(declare-fun l_0_6_6 () Real)
(declare-fun l_0_7_9 () Real)
(declare-fun l_0_7_8 () Real)
(declare-fun l_0_7_5 () Real)
(declare-fun l_0_7_10 () Real)
(declare-fun l_0_7_4 () Real)
(declare-fun l_0_7_3 () Real)
(declare-fun l_0_7_7 () Real)
(declare-fun l_0_7_6 () Real)
(declare-fun l_0_7_2 () Real)
(declare-fun l_0_7_1 () Real)
(declare-fun l_0_8_4 () Real)
(declare-fun l_0_8_3 () Real)
(declare-fun l_0_8_7 () Real)
(declare-fun l_0_8_6 () Real)
(declare-fun l_0_8_9 () Real)
(declare-fun l_0_8_8 () Real)
(declare-fun l_0_8_5 () Real)
(declare-fun l_0_8_11 () Real)
(declare-fun l_0_8_10 () Real)
(declare-fun l_0_8_2 () Real)
(declare-fun l_0_8_1 () Real)
(declare-fun l_0_9_2 () Real)
(declare-fun l_0_9_1 () Real)
(declare-fun l_0_9_4 () Real)
(declare-fun l_0_9_3 () Real)
(declare-fun l_0_9_8 () Real)
(declare-fun l_0_9_5 () Real)
(declare-fun l_0_9_7 () Real)
(declare-fun l_0_9_6 () Real)
(declare-fun l_0_10_2 () Real)
(declare-fun l_0_10_1 () Real)
(declare-fun l_0_10_4 () Real)
(declare-fun l_0_10_3 () Real)
(declare-fun l_0_10_9 () Real)
(declare-fun l_0_10_8 () Real)
(declare-fun l_0_10_5 () Real)
(declare-fun l_0_10_7 () Real)
(declare-fun l_0_10_6 () Real)
(declare-fun l_0_11_9 () Real)
(declare-fun l_0_11_8 () Real)
(declare-fun l_0_11_5 () Real)
(declare-fun l_0_11_10 () Real)
(declare-fun l_0_11_4 () Real)
(declare-fun l_0_11_3 () Real)
(declare-fun l_0_11_7 () Real)
(declare-fun l_0_11_6 () Real)
(declare-fun l_0_11_2 () Real)
(declare-fun l_0_11_1 () Real)
(declare-fun l_0_12_4 () Real)
(declare-fun l_0_12_3 () Real)
(declare-fun l_0_12_7 () Real)
(declare-fun l_0_12_6 () Real)
(declare-fun l_0_12_9 () Real)
(declare-fun l_0_12_8 () Real)
(declare-fun l_0_12_5 () Real)
(declare-fun l_0_12_11 () Real)
(declare-fun l_0_12_10 () Real)
(declare-fun l_0_12_2 () Real)
(declare-fun l_0_12_1 () Real)
(declare-fun l_0_13_2 () Real)
(declare-fun l_0_13_1 () Real)
(declare-fun _a_3_ () Real)
(declare-fun l_0_13_8 () Real)
(declare-fun l_0_13_5 () Real)
(declare-fun _a_4_ () Real)
(declare-fun _a_5_ () Real)
(declare-fun l_0_13_4 () Real)
(declare-fun l_0_13_3 () Real)
(declare-fun l_0_13_7 () Real)
(declare-fun l_0_13_6 () Real)
(declare-fun l_0_14_2 () Real)
(declare-fun l_0_14_1 () Real)
(declare-fun l_0_14_9 () Real)
(declare-fun l_0_14_8 () Real)
(declare-fun l_0_14_5 () Real)
(declare-fun l_0_14_4 () Real)
(declare-fun l_0_14_3 () Real)
(declare-fun l_0_14_7 () Real)
(declare-fun l_0_14_6 () Real)
(declare-fun l_0_15_9 () Real)
(declare-fun l_0_15_8 () Real)
(declare-fun l_0_15_5 () Real)
(declare-fun l_0_15_10 () Real)
(declare-fun l_0_15_4 () Real)
(declare-fun l_0_15_3 () Real)
(declare-fun l_0_15_7 () Real)
(declare-fun l_0_15_6 () Real)
(declare-fun l_0_15_2 () Real)
(declare-fun l_0_15_1 () Real)
(declare-fun l_0_16_4 () Real)
(declare-fun l_0_16_3 () Real)
(declare-fun l_0_16_7 () Real)
(declare-fun l_0_16_6 () Real)
(declare-fun l_0_16_9 () Real)
(declare-fun l_0_16_8 () Real)
(declare-fun l_0_16_5 () Real)
(declare-fun l_0_16_11 () Real)
(declare-fun l_0_16_10 () Real)
(declare-fun l_0_16_2 () Real)
(declare-fun l_0_16_1 () Real)
(declare-fun l_0_17_2 () Real)
(declare-fun l_0_17_1 () Real)
(declare-fun _a_8_ () Real)
(declare-fun l_0_17_8 () Real)
(declare-fun l_0_17_5 () Real)
(declare-fun _a_6_ () Real)
(declare-fun _a_7_ () Real)
(declare-fun l_0_17_4 () Real)
(declare-fun l_0_17_3 () Real)
(declare-fun l_0_17_7 () Real)
(declare-fun l_0_17_6 () Real)
(declare-fun l_0_18_2 () Real)
(declare-fun l_0_18_1 () Real)
(declare-fun l_0_18_9 () Real)
(declare-fun l_0_18_8 () Real)
(declare-fun l_0_18_5 () Real)
(declare-fun l_0_18_4 () Real)
(declare-fun l_0_18_3 () Real)
(declare-fun l_0_18_7 () Real)
(declare-fun l_0_18_6 () Real)
(declare-fun l_0_19_9 () Real)
(declare-fun l_0_19_8 () Real)
(declare-fun l_0_19_5 () Real)
(declare-fun l_0_19_10 () Real)
(declare-fun l_0_19_4 () Real)
(declare-fun l_0_19_3 () Real)
(declare-fun l_0_19_7 () Real)
(declare-fun l_0_19_6 () Real)
(declare-fun l_0_19_2 () Real)
(declare-fun l_0_19_1 () Real)
(declare-fun l_0_20_4 () Real)
(declare-fun l_0_20_3 () Real)
(declare-fun l_0_20_7 () Real)
(declare-fun l_0_20_6 () Real)
(declare-fun l_0_20_9 () Real)
(declare-fun l_0_20_8 () Real)
(declare-fun l_0_20_5 () Real)
(declare-fun l_0_20_11 () Real)
(declare-fun l_0_20_10 () Real)
(declare-fun l_0_20_2 () Real)
(declare-fun l_0_20_1 () Real)
(assert
 (= (- l_0_0_3) 0.0))
(assert
 (= (- l_0_0_1) 0.0))
(assert
 (= (- l_0_0_2) 0.0))
(assert
 (= (- l_0_0_4) 0.0))
(assert
 (>= l_0_0_1 0.0))
(assert
 (>= l_0_0_2 0.0))
(assert
 (>= l_0_0_3 0.0))
(assert
 (>= l_0_0_4 0.0))
(assert
 (= (- l_0_1_3) 0.0))
(assert
 (= (- l_0_1_1) 0.0))
(assert
 (= (- l_0_1_2) 0.0))
(assert
 (= (- (- l_0_1_4) l_0_1_5) 0.0))
(assert
 (>= l_0_1_1 0.0))
(assert
 (>= l_0_1_2 0.0))
(assert
 (>= l_0_1_3 0.0))
(assert
 (>= l_0_1_4 0.0))
(assert
 (>= l_0_1_5 0.0))
(assert
 (= (- (- (- l_0_2_4) l_0_2_5) l_0_2_6) 0.0))
(assert
 (= (- l_0_2_1) 0.0))
(assert
 (= (- l_0_2_2) 0.0))
(assert
 (= (- l_0_2_3) 0.0))
(assert
 (>= l_0_2_1 0.0))
(assert
 (>= l_0_2_2 0.0))
(assert
 (>= l_0_2_3 0.0))
(assert
 (>= l_0_2_4 0.0))
(assert
 (>= l_0_2_5 0.0))
(assert
 (>= l_0_2_6 0.0))
(assert
 (= (- (- (- (- l_0_3_4) l_0_3_5) l_0_3_6) l_0_3_7) 0.0))
(assert
 (= (- l_0_3_1) 0.0))
(assert
 (= (- l_0_3_2) 0.0))
(assert
 (= (- l_0_3_3) 0.0))
(assert
 (>= l_0_3_1 0.0))
(assert
 (>= l_0_3_2 0.0))
(assert
 (>= l_0_3_3 0.0))
(assert
 (>= l_0_3_4 0.0))
(assert
 (>= l_0_3_5 0.0))
(assert
 (>= l_0_3_6 0.0))
(assert
 (>= l_0_3_7 0.0))
(assert
 (= (+ (- (* 1.0 l_0_4_5) l_0_4_6) 1.0) 0.0))
(assert
 (= (+ (- l_0_4_1) l_0_4_2) 0.0))
(assert
 (= (- l_0_4_1 l_0_4_2) 0.0))
(assert
 (= (- l_0_4_1 l_0_4_2) 0.0))
(assert
 (= (- l_0_4_1 l_0_4_2) 0.0))
(assert
 (= (- l_0_4_3 l_0_4_4) 0.0))
(assert
 (>= l_0_4_1 0.0))
(assert
 (>= l_0_4_2 0.0))
(assert
 (>= l_0_4_3 0.0))
(assert
 (>= l_0_4_4 0.0))
(assert
 (>= l_0_4_5 0.0))
(assert
 (>= l_0_4_6 0.0))
(assert
 (= (+ (+ (- l_0_5_1) l_0_5_2) 1.0) 0.0))
(assert
 (= (- (- l_0_5_1 l_0_5_2) 1.0) 0.0))
(assert
 (= (- (- _a_0_) 1.0) 0.0))
(assert
 (= (- (- l_0_5_1 l_0_5_2) 1.0) 0.0))
(assert
 (= (- (- (- _a_1_) (* 1.0 l_0_5_5)) l_0_5_8) 0.0))
(assert
 (= (- (+ (- _a_2_) l_0_5_1) l_0_5_2) 0.0))
(assert
 (= (- l_0_5_3 l_0_5_4) 0.0))
(assert
 (= (- l_0_5_6 l_0_5_7) 0.0))
(assert
 (>= l_0_5_1 0.0))
(assert
 (>= l_0_5_2 0.0))
(assert
 (>= l_0_5_3 0.0))
(assert
 (>= l_0_5_4 0.0))
(assert
 (>= l_0_5_5 0.0))
(assert
 (>= l_0_5_6 0.0))
(assert
 (>= l_0_5_7 0.0))
(assert
 (>= l_0_5_8 0.0))
(assert
 (= (+ (- l_0_6_1 l_0_6_2) 1.0) 0.0))
(assert
 (= (+ _a_0_ 1.0) 0.0))
(assert
 (= (+ (- l_0_6_1 l_0_6_2) 1.0) 0.0))
(assert
 (= (- (- (- _a_1_ (* 1.0 l_0_6_5)) l_0_6_8) l_0_6_9) 0.0))
(assert
 (= (- (+ _a_2_ l_0_6_1) l_0_6_2) 0.0))
(assert
 (= (- (+ (- l_0_6_1) l_0_6_2) 1.0) 0.0))
(assert
 (= (- l_0_6_3 l_0_6_4) 0.0))
(assert
 (= (- l_0_6_6 l_0_6_7) 0.0))
(assert
 (>= l_0_6_1 0.0))
(assert
 (>= l_0_6_2 0.0))
(assert
 (>= l_0_6_3 0.0))
(assert
 (>= l_0_6_4 0.0))
(assert
 (>= l_0_6_5 0.0))
(assert
 (>= l_0_6_6 0.0))
(assert
 (>= l_0_6_7 0.0))
(assert
 (>= l_0_6_8 0.0))
(assert
 (>= l_0_6_9 0.0))
(assert
 (= (- (- (- (- l_0_7_10) (* 1.0 l_0_7_5)) l_0_7_8) l_0_7_9) 0.0))
(assert
 (= (- (- l_0_7_3 l_0_7_4) 1.0) 0.0))
(assert
 (= (- (- l_0_7_6 l_0_7_7) 1.0) 0.0))
(assert
 (= (+ (- l_0_7_1) l_0_7_2) 0.0))
(assert
 (= (- l_0_7_1 l_0_7_2) 0.0))
(assert
 (= (- l_0_7_1 l_0_7_2) 0.0))
(assert
 (= (- l_0_7_1 l_0_7_2) 0.0))
(assert
 (>= l_0_7_1 0.0))
(assert
 (>= l_0_7_2 0.0))
(assert
 (>= l_0_7_3 0.0))
(assert
 (>= l_0_7_4 0.0))
(assert
 (>= l_0_7_5 0.0))
(assert
 (>= l_0_7_6 0.0))
(assert
 (>= l_0_7_7 0.0))
(assert
 (>= l_0_7_8 0.0))
(assert
 (>= l_0_7_9 0.0))
(assert
 (>= l_0_7_10 0.0))
(assert
 (= (+ (- l_0_8_3 l_0_8_4) 1.0) 0.0))
(assert
 (= (+ (- l_0_8_6 l_0_8_7) 1.0) 0.0))
(assert
 (let ((?x539 (- (- (- (- (- l_0_8_10) l_0_8_11) (* 1.0 l_0_8_5)) l_0_8_8) l_0_8_9)))
 (= ?x539 0.0)))
(assert
 (= (+ (- l_0_8_1) l_0_8_2) 0.0))
(assert
 (= (- l_0_8_1 l_0_8_2) 0.0))
(assert
 (= (- l_0_8_1 l_0_8_2) 0.0))
(assert
 (= (- l_0_8_1 l_0_8_2) 0.0))
(assert
 (>= l_0_8_1 0.0))
(assert
 (>= l_0_8_2 0.0))
(assert
 (>= l_0_8_3 0.0))
(assert
 (>= l_0_8_4 0.0))
(assert
 (>= l_0_8_5 0.0))
(assert
 (>= l_0_8_6 0.0))
(assert
 (>= l_0_8_7 0.0))
(assert
 (>= l_0_8_8 0.0))
(assert
 (>= l_0_8_9 0.0))
(assert
 (>= l_0_8_10 0.0))
(assert
 (>= l_0_8_11 0.0))
(assert
 (= (+ (+ (- l_0_9_1) l_0_9_2) 1.0) 0.0))
(assert
 (= (- (- l_0_9_1 l_0_9_2) 1.0) 0.0))
(assert
 (= (- (- l_0_9_1 l_0_9_2) 1.0) 0.0))
(assert
 (= (- (- l_0_9_1 l_0_9_2) 1.0) 0.0))
(assert
 (= (- l_0_9_3 l_0_9_4) 0.0))
(assert
 (= (- (* (- 1.0) l_0_9_5) l_0_9_8) 0.0))
(assert
 (= (- l_0_9_6 l_0_9_7) 0.0))
(assert
 (>= l_0_9_1 0.0))
(assert
 (>= l_0_9_2 0.0))
(assert
 (>= l_0_9_3 0.0))
(assert
 (>= l_0_9_4 0.0))
(assert
 (>= l_0_9_5 0.0))
(assert
 (>= l_0_9_6 0.0))
(assert
 (>= l_0_9_7 0.0))
(assert
 (>= l_0_9_8 0.0))
(assert
 (= (+ (- l_0_10_1 l_0_10_2) 1.0) 0.0))
(assert
 (= (+ (- l_0_10_1 l_0_10_2) 1.0) 0.0))
(assert
 (= (+ (- l_0_10_1 l_0_10_2) 1.0) 0.0))
(assert
 (= (- (+ (- l_0_10_1) l_0_10_2) 1.0) 0.0))
(assert
 (= (- l_0_10_3 l_0_10_4) 0.0))
(assert
 (= (- (- (* (- 1.0) l_0_10_5) l_0_10_8) l_0_10_9) 0.0))
(assert
 (= (- l_0_10_6 l_0_10_7) 0.0))
(assert
 (>= l_0_10_1 0.0))
(assert
 (>= l_0_10_2 0.0))
(assert
 (>= l_0_10_3 0.0))
(assert
 (>= l_0_10_4 0.0))
(assert
 (>= l_0_10_5 0.0))
(assert
 (>= l_0_10_6 0.0))
(assert
 (>= l_0_10_7 0.0))
(assert
 (>= l_0_10_8 0.0))
(assert
 (>= l_0_10_9 0.0))
(assert
 (let ((?x661 (- (- (- (- l_0_11_10) (* 1.0 l_0_11_5)) l_0_11_8) l_0_11_9)))
 (= ?x661 0.0)))
(assert
 (= (- (- l_0_11_3 l_0_11_4) 1.0) 0.0))
(assert
 (= (- (- l_0_11_6 l_0_11_7) 1.0) 0.0))
(assert
 (= (+ (- l_0_11_1) l_0_11_2) 0.0))
(assert
 (= (- l_0_11_1 l_0_11_2) 0.0))
(assert
 (= (- l_0_11_1 l_0_11_2) 0.0))
(assert
 (= (- l_0_11_1 l_0_11_2) 0.0))
(assert
 (>= l_0_11_1 0.0))
(assert
 (>= l_0_11_2 0.0))
(assert
 (>= l_0_11_3 0.0))
(assert
 (>= l_0_11_4 0.0))
(assert
 (>= l_0_11_5 0.0))
(assert
 (>= l_0_11_6 0.0))
(assert
 (>= l_0_11_7 0.0))
(assert
 (>= l_0_11_8 0.0))
(assert
 (>= l_0_11_9 0.0))
(assert
 (>= l_0_11_10 0.0))
(assert
 (= (+ (- l_0_12_3 l_0_12_4) 1.0) 0.0))
(assert
 (= (+ (- l_0_12_6 l_0_12_7) 1.0) 0.0))
(assert
 (let ((?x726 (- (- (- (- l_0_12_10) l_0_12_11) (* 1.0 l_0_12_5)) l_0_12_8)))
 (= (- ?x726 l_0_12_9) 0.0)))
(assert
 (= (+ (- l_0_12_1) l_0_12_2) 0.0))
(assert
 (= (- l_0_12_1 l_0_12_2) 0.0))
(assert
 (= (- l_0_12_1 l_0_12_2) 0.0))
(assert
 (= (- l_0_12_1 l_0_12_2) 0.0))
(assert
 (>= l_0_12_1 0.0))
(assert
 (>= l_0_12_2 0.0))
(assert
 (>= l_0_12_3 0.0))
(assert
 (>= l_0_12_4 0.0))
(assert
 (>= l_0_12_5 0.0))
(assert
 (>= l_0_12_6 0.0))
(assert
 (>= l_0_12_7 0.0))
(assert
 (>= l_0_12_8 0.0))
(assert
 (>= l_0_12_9 0.0))
(assert
 (>= l_0_12_10 0.0))
(assert
 (>= l_0_12_11 0.0))
(assert
 (= (+ (+ (- l_0_13_1) l_0_13_2) 1.0) 0.0))
(assert
 (= (- (- l_0_13_1 l_0_13_2) 1.0) 0.0))
(assert
 (= (- 1.0 _a_3_) 0.0))
(assert
 (= (- (- l_0_13_1 l_0_13_2) 1.0) 0.0))
(assert
 (= (- (- (- _a_4_) (* 1.0 l_0_13_5)) l_0_13_8) 0.0))
(assert
 (= (- (+ (- _a_5_) l_0_13_1) l_0_13_2) 0.0))
(assert
 (= (- l_0_13_3 l_0_13_4) 0.0))
(assert
 (= (- l_0_13_6 l_0_13_7) 0.0))
(assert
 (>= l_0_13_1 0.0))
(assert
 (>= l_0_13_2 0.0))
(assert
 (>= l_0_13_3 0.0))
(assert
 (>= l_0_13_4 0.0))
(assert
 (>= l_0_13_5 0.0))
(assert
 (>= l_0_13_6 0.0))
(assert
 (>= l_0_13_7 0.0))
(assert
 (>= l_0_13_8 0.0))
(assert
 (= (+ (- l_0_14_1 l_0_14_2) 1.0) 0.0))
(assert
 (= (- _a_3_ 1.0) 0.0))
(assert
 (= (+ (- l_0_14_1 l_0_14_2) 1.0) 0.0))
(assert
 (= (- (- (- _a_4_ (* 1.0 l_0_14_5)) l_0_14_8) l_0_14_9) 0.0))
(assert
 (= (- (+ _a_5_ l_0_14_1) l_0_14_2) 0.0))
(assert
 (= (- (+ (- l_0_14_1) l_0_14_2) 1.0) 0.0))
(assert
 (= (- l_0_14_3 l_0_14_4) 0.0))
(assert
 (= (- l_0_14_6 l_0_14_7) 0.0))
(assert
 (>= l_0_14_1 0.0))
(assert
 (>= l_0_14_2 0.0))
(assert
 (>= l_0_14_3 0.0))
(assert
 (>= l_0_14_4 0.0))
(assert
 (>= l_0_14_5 0.0))
(assert
 (>= l_0_14_6 0.0))
(assert
 (>= l_0_14_7 0.0))
(assert
 (>= l_0_14_8 0.0))
(assert
 (>= l_0_14_9 0.0))
(assert
 (let ((?x883 (- (- (- (- l_0_15_10) (* 1.0 l_0_15_5)) l_0_15_8) l_0_15_9)))
 (= ?x883 0.0)))
(assert
 (= (- (- l_0_15_3 l_0_15_4) 1.0) 0.0))
(assert
 (= (+ (- l_0_15_6 l_0_15_7) 1.0) 0.0))
(assert
 (= (+ (- l_0_15_1) l_0_15_2) 0.0))
(assert
 (= (- l_0_15_1 l_0_15_2) 0.0))
(assert
 (= (- l_0_15_1 l_0_15_2) 0.0))
(assert
 (= (- l_0_15_1 l_0_15_2) 0.0))
(assert
 (>= l_0_15_1 0.0))
(assert
 (>= l_0_15_2 0.0))
(assert
 (>= l_0_15_3 0.0))
(assert
 (>= l_0_15_4 0.0))
(assert
 (>= l_0_15_5 0.0))
(assert
 (>= l_0_15_6 0.0))
(assert
 (>= l_0_15_7 0.0))
(assert
 (>= l_0_15_8 0.0))
(assert
 (>= l_0_15_9 0.0))
(assert
 (>= l_0_15_10 0.0))
(assert
 (= (+ (- l_0_16_3 l_0_16_4) 1.0) 0.0))
(assert
 (= (- (- l_0_16_6 l_0_16_7) 1.0) 0.0))
(assert
 (let ((?x948 (- (- (- (- l_0_16_10) l_0_16_11) (* 1.0 l_0_16_5)) l_0_16_8)))
 (= (- ?x948 l_0_16_9) 0.0)))
(assert
 (= (+ (- l_0_16_1) l_0_16_2) 0.0))
(assert
 (= (- l_0_16_1 l_0_16_2) 0.0))
(assert
 (= (- l_0_16_1 l_0_16_2) 0.0))
(assert
 (= (- l_0_16_1 l_0_16_2) 0.0))
(assert
 (>= l_0_16_1 0.0))
(assert
 (>= l_0_16_2 0.0))
(assert
 (>= l_0_16_3 0.0))
(assert
 (>= l_0_16_4 0.0))
(assert
 (>= l_0_16_5 0.0))
(assert
 (>= l_0_16_6 0.0))
(assert
 (>= l_0_16_7 0.0))
(assert
 (>= l_0_16_8 0.0))
(assert
 (>= l_0_16_9 0.0))
(assert
 (>= l_0_16_10 0.0))
(assert
 (>= l_0_16_11 0.0))
(assert
 (= (+ (+ (- l_0_17_1) l_0_17_2) 1.0) 0.0))
(assert
 (= (- (- l_0_17_1 l_0_17_2) 1.0) 0.0))
(assert
 (= (- (- l_0_17_1 l_0_17_2) 1.0) 0.0))
(assert
 (= (- 1.0 _a_8_) 0.0))
(assert
 (= (- (- (- _a_6_) (* 1.0 l_0_17_5)) l_0_17_8) 0.0))
(assert
 (= (- (+ (- _a_7_) l_0_17_1) l_0_17_2) 0.0))
(assert
 (= (- l_0_17_3 l_0_17_4) 0.0))
(assert
 (= (- l_0_17_6 l_0_17_7) 0.0))
(assert
 (>= l_0_17_1 0.0))
(assert
 (>= l_0_17_2 0.0))
(assert
 (>= l_0_17_3 0.0))
(assert
 (>= l_0_17_4 0.0))
(assert
 (>= l_0_17_5 0.0))
(assert
 (>= l_0_17_6 0.0))
(assert
 (>= l_0_17_7 0.0))
(assert
 (>= l_0_17_8 0.0))
(assert
 (= (+ (- l_0_18_1 l_0_18_2) 1.0) 0.0))
(assert
 (= (+ (- l_0_18_1 l_0_18_2) 1.0) 0.0))
(assert
 (= (- _a_8_ 1.0) 0.0))
(assert
 (= (- (- (- _a_6_ (* 1.0 l_0_18_5)) l_0_18_8) l_0_18_9) 0.0))
(assert
 (= (- (+ _a_7_ l_0_18_1) l_0_18_2) 0.0))
(assert
 (= (- (+ (- l_0_18_1) l_0_18_2) 1.0) 0.0))
(assert
 (= (- l_0_18_3 l_0_18_4) 0.0))
(assert
 (= (- l_0_18_6 l_0_18_7) 0.0))
(assert
 (>= l_0_18_1 0.0))
(assert
 (>= l_0_18_2 0.0))
(assert
 (>= l_0_18_3 0.0))
(assert
 (>= l_0_18_4 0.0))
(assert
 (>= l_0_18_5 0.0))
(assert
 (>= l_0_18_6 0.0))
(assert
 (>= l_0_18_7 0.0))
(assert
 (>= l_0_18_8 0.0))
(assert
 (>= l_0_18_9 0.0))
(assert
 (let ((?x1105 (- (- (- (- l_0_19_10) (* 1.0 l_0_19_5)) l_0_19_8) l_0_19_9)))
 (= ?x1105 0.0)))
(assert
 (= (- (- l_0_19_3 l_0_19_4) 1.0) 0.0))
(assert
 (= (+ (- l_0_19_6 l_0_19_7) 1.0) 0.0))
(assert
 (= (+ (- l_0_19_1) l_0_19_2) 0.0))
(assert
 (= (- l_0_19_1 l_0_19_2) 0.0))
(assert
 (= (- l_0_19_1 l_0_19_2) 0.0))
(assert
 (= (- l_0_19_1 l_0_19_2) 0.0))
(assert
 (>= l_0_19_1 0.0))
(assert
 (>= l_0_19_2 0.0))
(assert
 (>= l_0_19_3 0.0))
(assert
 (>= l_0_19_4 0.0))
(assert
 (>= l_0_19_5 0.0))
(assert
 (>= l_0_19_6 0.0))
(assert
 (>= l_0_19_7 0.0))
(assert
 (>= l_0_19_8 0.0))
(assert
 (>= l_0_19_9 0.0))
(assert
 (>= l_0_19_10 0.0))
(assert
 (= (+ (- l_0_20_3 l_0_20_4) 1.0) 0.0))
(assert
 (= (- (- l_0_20_6 l_0_20_7) 1.0) 0.0))
(assert
 (let ((?x1170 (- (- (- (- l_0_20_10) l_0_20_11) (* 1.0 l_0_20_5)) l_0_20_8)))
 (= (- ?x1170 l_0_20_9) 0.0)))
(assert
 (= (+ (- l_0_20_1) l_0_20_2) 0.0))
(assert
 (= (- l_0_20_1 l_0_20_2) 0.0))
(assert
 (= (- l_0_20_1 l_0_20_2) 0.0))
(assert
 (= (- l_0_20_1 l_0_20_2) 0.0))
(assert
 (>= l_0_20_1 0.0))
(assert
 (>= l_0_20_2 0.0))
(assert
 (>= l_0_20_3 0.0))
(assert
 (>= l_0_20_4 0.0))
(assert
 (>= l_0_20_5 0.0))
(assert
 (>= l_0_20_6 0.0))
(assert
 (>= l_0_20_7 0.0))
(assert
 (>= l_0_20_8 0.0))
(assert
 (>= l_0_20_9 0.0))
(assert
 (>= l_0_20_10 0.0))
(assert
 (>= l_0_20_11 0.0))
(check-sat)
(get-model)